c Sudoku solution
p cnf 729 0
232 0
263 0
276 0
295 0
327 0
333 0
356 0
372 0
421 0
453 0
485 0
546 0
567 0
579 0
584 0
644 0
678 0
477 0
711 0
131 0
768 0
775 0
918 0
934 0
414 0
219 0
315 0
116 0
959 0
962 0
866 0
469 0
987 0
197 0
883 0
971 0
874 0
996 0
898 0
754 0
224 0
128 0
173 0
189 0
394 0
164 0
361 0
349 0
281 0
388 0
841 0
665 0
686 0
492 0
448 0
436 0
538 0
525 0
923 0
835 0
743 0
945 0
857 0
737 0
726 0
812 0
829 0
513 0
552 0
651 0
591 0
693 0
617 0
622 0
639 0
142 0
155 0
247 0
258 0
782 0
799 0
